32      4       
15      12      20      11      
0       0       0       0       0       3       2       3       4       
8       3       1       3       1       4       5       7       9       10      
6       1       8       11      2       2       5       9       
9       1       1       4       2       2       5       9       
8       6       4       9       1       1       6       
9       1       4       1       5       1       8       
2       1       1       13      1       1       8       
4       1       1       1       3       2       11      18      
5       10      6       1       1       2       11      18      
9       8       1       1       5       2       11      18      
10      1       1       1       5       3       12      17      20      
8       1       6       1       1       2       13      14      
9       1       1       1       3       2       15      19      
8       5       1       14      5       2       16      19      
6       7       8       1       1       1       16      
6       4       2       6       4       2       21      22      
10      12      2       10      3       2       23      25      
2       3       2       8       3       1       19      
7       1       1       5       2       2       24      25      
8       11      1       1       2       2       24      25      
2       4       1       1       1       1       23      
1       1       1       15      3       2       25      26      
2       2       5       1       2       1       24      
6       2       2       7       1       3       26      27      31      
9       7       4       1       1       3       27      28      31      
6       2       1       1       11      2       28      30      
6       1       3       1       4       2       29      30      
3       1       9       14      1       1       29      
8       7       5       1       1       1       32      
9       7       1       15      3       1       32      
1       1       6       1       5       1       32      
0       0       0       0       0       0       
